# Solution for model GasLib-11
# Objective value = 3.7582160020897319e+01
loadshed[N01] 0
loadshed[N02] 0
loadshed[N03] 0
loadshed[N04] 0
loadshed[N05] 0
loadshed[entry01] 6.0109783469438838e-01
loadshed[entry03] 0
loadshed[entry02] 5.4411181107930107e-01
loadshed[exit01] 7.4213592334867506e-01
loadshed[exit02] 5.7557381153056975e-01
loadshed[exit03] 3.6336071729585484e-01
flow[entry01,entry03] 1.3917253322884671e+01
flow[N01,N02] 0
flow[entry02,N03] 1.3917253322884671e+01
flow[N02,exit01] 5.6228694492025015e+00
flow[N02,N04] -5.6228694492025015e+00
flow[N03,N04] 2.7834506645769341e+01
flow[N05,exit02] 1.1105818598283424e+01
flow[N05,exit03] 1.1105818598283420e+01
flow[entry03,N01] 1.3917253322884671e+01
flow[N04,N05] 2.2211637196566841e+01
flow[N01,N03] 1.3917253322884671e+01
pressure[N01] 6.2121937664759294e+01
pressure[N02] 4.3182906497138937e+01
pressure[N03] 6.2121937664759294e+01
pressure[N04] 4.6365812994277860e+01
pressure[N05] 4.6365812994277860e+01
pressure[entry01] 70
pressure[entry03] 6.2121937664759294e+01
pressure[entry02] 70
pressure[exit01] 40
pressure[exit02] 40
pressure[exit03] 40
interdiction[entry01,entry03] 0
interdiction[N01,N02] 1
interdiction[entry02,N03] 0
interdiction[N02,exit01] 0
interdiction[N02,N04] 0
interdiction[N03,N04] 0
interdiction[N05,exit02] 0
interdiction[N05,exit03] 0
interdiction[entry03,N01] 0
interdiction[N04,N05] 0
interdiction[N01,N03] 0
WCcheckFlow[entry01,entry03] 10
WCcheckFlow[N01,N02] 0
WCcheckFlow[entry02,N03] -1
WCcheckFlow[N02,exit01] 1
WCcheckFlow[N02,N04] -2
WCcheckFlow[N03,N04] 6
WCcheckFlow[N05,exit02] 1
WCcheckFlow[N05,exit03] 1
WCcheckFlow[entry03,N01] 9
WCcheckFlow[N04,N05] 3
WCcheckFlow[N01,N03] 8
